!!! Generated by ASE !!!
&FORCE_EVAL
   METHOD Quickstep
   STRESS_TENSOR ANALYTICAL
   &DFT
      LSD
      CHARGE -19
      BASIS_SET_FILE_NAME BASIS_MOLOPT
      POTENTIAL_FILE_NAME POTENTIAL
      &SCF
         EPS_SCF 5.00000000E-005
         SCF_GUESS ATOMIC
         MAX_SCF 600
         &OT T
            PRECONDITIONER FULL_SINGLE_INVERSE
            MINIMIZER CG
            LINESEARCH 3PNT
         &END OT
      &END SCF
      &MGRID
         CUTOFF [eV] 5.442277204873448682e+03
      &END MGRID
      &LS_SCF
         MAX_SCF 600
      &END LS_SCF
      &XC
         &XC_FUNCTIONAL
            &PBE
            &END PBE
         &END XC_FUNCTIONAL
      &END XC
   &END DFT
   &PRINT
      &STRESS_TENSOR ON
      &END STRESS_TENSOR
   &END PRINT
   &SUBSYS
      &COORD
         Ge 0.000000000000000000e+00 4.347039999999999793e+00 8.702410000000000423e+00
         P 0.000000000000000000e+00 4.347039999999999793e+00 2.402709999999999901e+00
         Ge 4.347039999999999793e+00 0.000000000000000000e+00 1.019669999999999987e+01
         P 4.347039999999999793e+00 0.000000000000000000e+00 3.896990000000000176e+00
         P 0.000000000000000000e+00 0.000000000000000000e+00 6.299699999999999633e+00
         P 4.347039999999999793e+00 4.347039999999999793e+00 0.000000000000000000e+00
         S 0.000000000000000000e+00 1.602319999999999967e+00 5.169539999999999580e+00
         S 0.000000000000000000e+00 7.091750000000000220e+00 5.169539999999999580e+00
         S 2.744720000000000049e+00 4.347039999999999793e+00 1.146920000000000073e+01
         S 5.949349999999999916e+00 4.347039999999999793e+00 1.146920000000000073e+01
         S 4.347039999999999793e+00 5.949349999999999916e+00 1.130169999999999897e+00
         S 4.347039999999999793e+00 2.744720000000000049e+00 1.130169999999999897e+00
         S 1.602319999999999967e+00 0.000000000000000000e+00 7.429870000000000196e+00
         S 7.091750000000000220e+00 0.000000000000000000e+00 7.429870000000000196e+00
         S 0.000000000000000000e+00 2.600400000000000045e+00 1.196949999999999958e+00
         S 0.000000000000000000e+00 6.093670000000000364e+00 1.196949999999999958e+00
         S 1.746639999999999970e+00 4.347039999999999793e+00 7.496640000000000192e+00
         S 6.947429999999999772e+00 4.347039999999999793e+00 7.496640000000000192e+00
         S 4.347039999999999793e+00 6.947429999999999772e+00 5.102759999999999962e+00
         S 4.347039999999999793e+00 1.746639999999999970e+00 5.102759999999999962e+00
         S 2.600400000000000045e+00 0.000000000000000000e+00 1.140249999999999986e+01
         S 6.093670000000000364e+00 0.000000000000000000e+00 1.140249999999999986e+01
         S 0.000000000000000000e+00 6.077149999999999608e+00 9.971170000000000755e+00
         S 0.000000000000000000e+00 2.616909999999999847e+00 9.971170000000000755e+00
         S 6.963949999999999640e+00 4.347039999999999793e+00 3.671469999999999789e+00
         S 1.730120000000000102e+00 4.347039999999999793e+00 3.671469999999999789e+00
         S 4.347039999999999793e+00 1.730120000000000102e+00 8.927939999999999543e+00
         S 4.347039999999999793e+00 6.963949999999999640e+00 8.927939999999999543e+00
         S 6.077149999999999608e+00 0.000000000000000000e+00 2.628239999999999910e+00
         S 2.616909999999999847e+00 0.000000000000000000e+00 2.628239999999999910e+00
         Li 0.000000000000000000e+00 0.000000000000000000e+00 0.000000000000000000e+00
      &END COORD
      &CELL
         PERIODIC XYZ
         A 8.694063999999999126e+00 0.000000000000000000e+00 0.000000000000000000e+00
         B 0.000000000000000000e+00 8.694063999999999126e+00 0.000000000000000000e+00
         C 0.000000000000000000e+00 0.000000000000000000e+00 1.259935100000000041e+01
      &END CELL
      &KIND Ge
         BASIS_SET DZVP-MOLOPT-SR-GTH
         POTENTIAL GTH-PBE
      &END KIND
      &KIND Li
         BASIS_SET DZVP-MOLOPT-SR-GTH
         POTENTIAL GTH-PBE
      &END KIND
      &KIND S
         BASIS_SET DZVP-MOLOPT-SR-GTH
         POTENTIAL GTH-PBE
      &END KIND
      &KIND P
         BASIS_SET DZVP-MOLOPT-SR-GTH
         POTENTIAL GTH-PBE
      &END KIND
   &END SUBSYS
&END FORCE_EVAL
&GLOBAL
   PROJECT cp2k
   PRINT_LEVEL LOW
&END GLOBAL
